n_machines = 5;
n_resources = 6;
n_jobs = 30;
horizon = 1541;
LB = 325;
n_jobs_per_resource = [5, 5, 5, 5, 5, 5];
duration = [17, 65, 9, 88, 26, 68, 38, 21, 47, 93, 56, 67, 99, 14, 89, 62, 23, 65, 11, 69, 5, 13, 30, 82, 87, 92, 9, 92, 25, 79]